; =========================================
; Z3 Solver Result
; =========================================

; STATUS: SAT

(set-logic QF_LIA)

(model
  (define-fun VM3Type () Int 0)
  (define-fun PriceProv2 () Int 532)
  (define-fun VM2Type () Int 252)
  (define-fun PriceProv6 () Int 210)
  (define-fun StorageProv5 () Int 2000)
  (define-fun C5_VM3 () Int 0)
  (define-fun MemProv6 () Int 7500)
  (define-fun C1_VM5 () Int 0)
  (define-fun VM6Type () Int 341)
  (define-fun C3_VM3 () Int 0)
  (define-fun C4_VM6 () Int 0)
  (define-fun StorageProv3 () Int 2001)
  (define-fun StorageProv4 () Int 2000)
  (define-fun C4_VM3 () Int 0)
  (define-fun PriceProv3 () Int 0)
  (define-fun PriceProv1 () Int 210)
  (define-fun ProcProv5 () Int 8)
  (define-fun VM1Type () Int 341)
  (define-fun C5_VM6 () Int 1)
  (define-fun C3_VM1 () Int 0)
  (define-fun StorageProv6 () Int 2000)
  (define-fun PriceProv5 () Int 420)
  (define-fun StorageProv1 () Int 2000)
  (define-fun C4_VM5 () Int 0)
  (define-fun C1_VM1 () Int 1)
  (define-fun ProcProv3 () Int 9)
  (define-fun C1_VM2 () Int 0)
  (define-fun C5_VM2 () Int 0)
  (define-fun C2_VM6 () Int 1)
  (define-fun C5_VM5 () Int 1)
  (define-fun MemProv2 () Int 30000)
  (define-fun C1_VM3 () Int 0)
  (define-fun MemProv5 () Int 15000)
  (define-fun ProcProv4 () Int 4)
  (define-fun C3_VM4 () Int 0)
  (define-fun C2_VM5 () Int 0)
  (define-fun C2_VM2 () Int 0)
  (define-fun C1_VM6 () Int 0)
  (define-fun C3_VM6 () Int 0)
  (define-fun MemProv1 () Int 7500)
  (define-fun MemProv4 () Int 7500)
  (define-fun MemProv3 () Int 30001)
  (define-fun C2_VM3 () Int 0)
  (define-fun C4_VM1 () Int 0)
  (define-fun C3_VM2 () Int 0)
  (define-fun C2_VM4 () Int 1)
  (define-fun VM4Type () Int 341)
  (define-fun ProcProv1 () Int 4)
  (define-fun ProcProv2 () Int 8)
  (define-fun ProcProv6 () Int 4)
  (define-fun C3_VM5 () Int 1)
  (define-fun VM5Type () Int 278)
  (define-fun C5_VM1 () Int 0)
  (define-fun C4_VM4 () Int 0)
  (define-fun PriceProv4 () Int 210)
  (define-fun StorageProv2 () Int 2000)
  (define-fun C4_VM2 () Int 1)
  (define-fun C5_VM4 () Int 1)
  (define-fun C1_VM4 () Int 0)
  (define-fun C2_VM1 () Int 0)
)

; Optimized objective values
(define-fun objective1 () Int 1582)

; =========================================
; Z3 Statistics (-st equivalent)
; =========================================

conflicts: 10262
decisions: 263691
propagations: 22257909
binary propagations: 22071459
restarts: 84
final checks: 125
added eqs: 480459
mk clause: 4338536
mk clause binary: 41761
del clause: 4335289
minimized lits: 949210
num checks: 97
mk bool var: 123852
pb resolves: 320
pb conflicts: 360
pb propagations: 6082
pb predicates: 18
arith eq adapter: 8762
arith-lower: 6755069
arith-upper: 2263415
arith-conflicts: 809
arith-bound-propagations-lp: 6888305
arith-diseq: 4448141
arith-make-feasible: 32308
arith-max-columns: 567
arith-max-rows: 20
arith-fixed-eqs: 2871
bv dynamic diseqs: 4311523
bv bit2core: 36762
bv->core eq: 255
solve-eqs-steps: 10
solve-eqs-elim-vars: 1
rlimit count: 62133255
max memory: 47.38
memory: 44.29
num allocs: 4462064147.0
time: 7.768

; End of SMT2LIB result file
